c ---- [ banner ] ------------------------------------------------------------
c
c Kissat SAT Solver
c 
c Copyright (c) 2021-2024 Armin Biere University of Freiburg
c Copyright (c) 2019-2021 Armin Biere Johannes Kepler University Linz
c 
c Version 4.0.1 43f02cf3e992cb44653b35e5cb26f93281552ae0
c gcc (Ubuntu 13.2.0-23ubuntu4) 13.2.0 -W -Wall -O3 -DNDEBUG
c Thu Sep 12 12:27:46 CEST 2024 Linux abryzen9 6.8.0-41-generic x86_64
c
c ---- [ parsing ] -----------------------------------------------------------
c
c opened and reading DIMACS file:
c
c   /data/artifact/AMulet2.0_artifact/exp4/cnf_dc2_64/64_64_U_SP_AR_LF_GenMul_dc2.cnf
c
c parsed 'p cnf 28345 124575' header
c closing input after reading 2478982 bytes (2 MB)
c finished parsing after 0.02 seconds
c
c ---- [ options ] -----------------------------------------------------------
c
c --stable=0                       (different from default '1')
c
c ---- [ solving ] -----------------------------------------------------------
c
c  seconds switched rate     size/glue tier1  binary          remaining
c         MB reductions conflicts size  tier2    irredundant
c          level restarts redundant glue  trail          variables
c
c *  0.02 10 0 0 0  0 0   0   0 0.0 0 0 0 0 0% 8822 115751 28342 100%
c (  0.04 13 0 0 0  0 0   0   0 0.0 0 0 0 0 0% 8822 115751 28342 100%
c .  0.05 13 0 0 0  0 0   0   0 0.0 0 0 0 0 0% 8818 115751 28342 100%
c f  0.22 17 0 0 0  0 0   0   0 0.0 0 0 0 0 0% 8826 115735 28350 100%
c e  0.34 24 0 0 0  0 0   0   0 0.0 0 0 0 0 0% 8511 115898 20292 72%
c )  0.34 24 0 0 0  0 0   0   0 0.0 0 0 0 0 0% 8511 115898 20292 72%
c {  0.36 24 0 0 0  0 0   0   0 0.0 0 0 2 6 0% 8511 115898 20292 72%
c -  0.48 26 155 0 1 265 30 1000 879 1.8 10 5 3 10 26% 8521 115898 20292 72%
c -  0.56 26 144 0 2 404 24 2000 1652 1.8 10 6 3 11 23% 8526 115898 20292 72%
c u  0.63 26 134 0 2 513 25 2506 1741 1.9 11 6 3 11 22% 8535 115898 20292 72%
c v  0.64 26 134 0 2 513 25 2506 1688 1.9 11 6 3 11 22% 8535 115898 20292 72%
c w  0.65 26 134 0 2 513 25 2506 1688 1.9 11 6 3 11 22% 8535 115898 20292 72%
c f  0.69 26 134 0 2 513 25 2506 1688 1.9 11 6 3 11 22% 8536 115896 20293 72%
c u  0.74 26 134 0 2 513 25 2506 1655 1.9 11 6 3 11 22% 8536 115896 20293 72%
c v  0.76 26 134 0 2 513 25 2506 1574 1.9 11 6 3 11 22% 8536 115896 20293 72%
c w  0.77 26 134 0 2 513 25 2506 1574 1.9 11 6 3 11 22% 8536 115896 20293 72%
c =  0.81 26 134 0 2 513 25 2506 1574 1.9 11 6 3 11 22% 8786 115894 20168 71%
c d  0.81 26 134 0 2 513 25 2506 1574 1.9 11 6 3 11 22% 8536 115894 20168 71%
c f  0.83 26 134 0 2 513 25 2506 1574 1.9 11 6 3 11 22% 8538 115889 20170 71%
c -  0.91 26 121 0 3 715 24 3415 2110 1.9 11 6 4 12 20% 8547 115889 20170 71%
c
c  seconds   switched    rate       size/glue tier1     binary          remaining
c         MB  reductions  conflicts       size  tier2      irredundant
c           level  restarts    redundant    glue    trail          variables
c
c -  1.11 26 108 0 4 1053 22 5147 3245 2.0 12 6 4 12 20% 8568 115889 20170 71%
c -  1.31 26 110 0 5 1288 21 7147 4388 2.0 13 6 3 11 21% 8582 115889 20170 71%
c u  1.35 26 108 0 5 1302 20 7715 4380 2.0 12 6 3 11 20% 8601 115889 20170 71%
c v  1.37 26 108 0 5 1302 20 7715 4295 2.0 12 6 3 11 20% 8601 115889 20170 71%
c w  1.37 26 108 0 5 1302 20 7715 4292 2.0 12 6 3 11 20% 8601 115889 20170 71%
c =  1.45 26 108 0 5 1302 20 7715 4292 2.0 12 6 3 11 20% 10133 115819 19402 68%
c d  1.46 26 108 0 5 1302 20 7715 4288 2.0 12 6 3 11 20% 8601 115819 19402 68%
c t  1.47 26 108 0 5 1302 20 7715 4288 2.0 12 6 3 11 20% 8593 115819 19402 68%
c f  1.50 26 108 0 5 1302 20 7715 4288 2.0 12 6 3 11 20% 8600 115723 19450 69%
c u  1.56 26 108 0 5 1302 20 7715 3947 2.0 12 6 3 11 20% 8605 115723 19450 69%
c v  1.60 26 108 0 5 1302 20 7715 3735 2.0 12 6 3 11 20% 8607 115723 19450 69%
c w  1.61 26 108 0 5 1302 20 7715 3732 2.0 12 6 3 11 20% 8607 115723 19450 69%
c =  1.71 26 108 0 5 1302 20 7715 3732 2.0 12 6 3 11 20% 10307 115685 18597 66%
c d  1.72 26 108 0 5 1302 20 7715 3730 2.0 12 6 3 11 20% 8607 115685 18597 66%
c t  1.73 26 108 0 5 1302 20 7715 3730 2.0 12 6 3 11 20% 8601 115685 18597 66%
c f  1.77 26 108 0 5 1302 20 7715 3730 2.0 12 6 3 11 20% 8608 115641 18619 66%
c -  1.93 26 110 0 6 1476 19 9384 4501 2.0 13 6 3 11 21% 8627 115641 18619 66%
c o  2.00 26 112 0 6 1510 18 10095 5187 2.0 12 6 3 11 21% 8633 115641 18619 66%
c -  2.21 26 110 0 7 1648 17 11834 5929 2.0 13 6 3 10 21% 8644 115640 18619 66%
c s  2.29 26 109 0 7 1725 17 12523 6605 2.0 13 6 3 10 21% 8646 103675 18619 66%
c
c  seconds   switched    rate        size/glue tier1     binary          remaining
c         MB  reductions   conflicts       size  tier2      irredundant
c           level  restarts     redundant    glue    trail          variables
c
c e  2.36 26 109 0 7 1725 17 12523 6605 2.0 13 6 3 10 21% 8556 103743 18536 65%
c s  2.36 26 109 0 7 1725 17 12523 6605 2.0 13 6 3 10 21% 8556 103715 18536 65%
c e  2.36 26 109 0 7 1725 17 12523 6605 2.0 13 6 3 10 21% 8543 103704 18518 65%
c ^  2.36 26 109 0 7 1725 17 12523 6605 2.0 13 6 3 10 21% 8543 103704 18518 65%
c -  2.54 26 109 0 8 2050 17 14479 7270 2.0 13 6 3 10 21% 8572 103704 18518 65%
c c  2.68 26 107 0 8 2211 17 15804 8513 2.0 13 6 3 10 20% 8615 103593 18503 65%
c d  2.68 26 107 0 8 2211 17 15804 8511 2.0 13 6 3 10 20% 8587 103593 18503 65%
c u  2.72 26 107 0 8 2211 17 15804 7626 2.0 13 6 3 10 20% 8644 103593 18503 65%
c v  2.75 26 107 0 8 2211 17 15804 7437 2.0 13 6 3 10 20% 8646 103593 18503 65%
c w  2.77 26 107 0 8 2211 17 15804 7436 2.0 13 6 3 10 20% 8646 103593 18503 65%
c =  2.88 26 107 0 8 2211 17 15804 7436 2.0 13 6 3 10 20% 10672 103593 17490 62%
c d  2.89 26 107 0 8 2211 17 15804 7391 2.0 13 6 3 10 20% 8644 103593 17490 62%
c t  2.91 26 107 0 8 2211 17 15804 7391 2.0 13 6 3 10 20% 8643 103593 17490 62%
c f  2.94 26 107 0 8 2211 17 15804 7391 2.0 13 6 3 10 20% 8644 103589 17491 62%
c u  2.98 26 107 0 8 2211 17 15804 7157 2.0 13 6 3 10 20% 8647 103589 17491 62%
c v  3.01 26 107 0 8 2211 17 15804 7054 2.0 13 6 3 10 20% 8647 103589 17491 62%
c w  3.03 26 107 0 8 2211 17 15804 7051 2.0 13 6 3 10 20% 8647 103589 17491 62%
c x  3.06 26 107 0 8 2211 17 15804 7051 2.0 13 6 3 10 20% 8647 101380 17491 62%
c =  3.17 26 107 0 8 2211 17 15804 7051 2.0 13 6 3 10 20% 10201 101330 16710 59%
c d  3.17 26 107 0 8 2211 17 15804 7051 2.0 13 6 3 10 20% 8649 101326 16710 59%
c
c  seconds   switched    rate        size/glue tier1     binary          remaining
c         MB  reductions   conflicts       size  tier2      irredundant
c           level  restarts     redundant    glue    trail          variables
c
c t  3.19 26 107 0 8 2211 17 15804 7051 2.0 13 6 3 10 20% 8634 101326 16710 59%
c f  3.23 26 107 0 8 2211 17 15804 7051 2.0 13 6 3 10 20% 8623 101322 16711 59%
c -  3.34 26 107 0 9 2361 17 17308 6889 2.0 13 7 2 10 20% 8648 101322 16711 59%
c o  3.55 26 106 0 9 2734 17 20101 9579 2.0 13 7 2 10 20% 8681 101322 16711 59%
c -  3.58 26 106 0 10 2771 17 20308 8104 2.0 13 7 2 10 20% 8684 101322 16711 59%
c -  3.82 26 105 0 11 3133 16 23470 9352 2.0 13 7 2 10 20% 8712 101322 16711 59%
c s  3.95 26 104 0 11 3321 16 25028 10830 2.0 14 7 2 10 20% 8726 91065 16711 59%
c e  4.02 26 104 0 11 3321 16 25028 10830 2.0 14 7 2 10 20% 8682 91101 16684 59%
c s  4.03 26 104 0 11 3321 16 25028 10830 2.0 14 7 2 10 20% 8685 91083 16684 59%
c e  4.03 26 104 0 11 3321 16 25028 10830 2.0 14 7 2 10 20% 8683 91086 16682 59%
c ^  4.03 26 104 0 11 3321 16 25028 10830 2.0 14 7 2 10 20% 8683 91086 16682 59%
c -  4.22 26 105 0 12 3520 16 26788 10468 2.0 14 7 2 9 20% 8697 91086 16682 59%
c d  4.23 26 105 0 12 3520 16 26934 10519 2.0 14 7 2 9 20% 8698 91086 16673 59%
c u  4.30 26 105 0 12 3520 16 26934 9308 2.0 14 7 2 9 20% 8779 91086 16673 59%
c v  4.33 26 105 0 12 3520 16 26934 8778 2.0 14 7 2 9 20% 8780 91086 16673 59%
c w  4.34 26 105 0 12 3520 16 26934 8778 2.0 14 7 2 9 20% 8780 91086 16673 59%
c =  4.44 26 105 0 12 3520 16 26934 8778 2.0 14 7 2 9 20% 11492 90936 15306 54%
c d  4.45 26 105 0 12 3520 16 26934 8744 2.0 14 7 2 9 20% 8769 90936 15306 54%
c t  4.46 26 105 0 12 3520 16 26934 8744 2.0 14 7 2 9 20% 8751 90936 15306 54%
c u  4.55 26 105 0 12 3520 16 26934 8413 2.0 14 7 2 9 20% 8696 90936 15306 54%
c
c  seconds   switched     rate        size/glue tier1    binary         remaining
c         MB   reductions   conflicts       size  tier2     irredundant
c           level   restarts     redundant    glue   trail         variables
c
c v  4.59 26 105 0 12 3520 16 26934 8282 2.0 14 7 2 9 20% 8696 90936 15306 54%
c x  4.64 26 105 0 12 3520 16 26934 8282 2.0 14 7 2 9 20% 8696 85682 15306 54%
c =  4.78 26 105 0 12 3520 16 26934 8282 2.0 14 7 2 9 20% 11596 85628 13850 49%
c d  4.78 26 105 0 12 3520 16 26934 8269 2.0 14 7 2 9 20% 8696 85628 13850 49%
c t  4.80 26 105 0 12 3520 16 26934 8269 2.0 14 7 2 9 20% 8691 85628 13850 49%
c -  5.03 26 103 0 13 3837 15 30253 9593 2.0 14 7 2 9 21% 8710 85628 13850 49%
c -  5.26 26 103 0 14 4115 15 33858 10907 2.1 14 7 2 9 21% 8744 85628 13850 49%
c -  5.51 26 101 0 15 4412 15 37601 12208 2.2 15 7 2 8 22% 8765 85628 13850 49%
c o  5.69 26 100 0 15 4714 14 40166 14692 2.1 15 7 2 8 22% 8785 85628 13850 49%
c c  5.80 26 100 0 15 4854 15 41261 15721 2.1 15 7 2 8 22% 8833 85452 13827 49%
c d  5.81 26 100 0 15 4854 15 41261 15676 2.1 15 7 2 8 22% 8787 85452 13827 49%
c u  5.84 26 100 0 15 4854 15 41261 15251 2.1 15 7 2 8 22% 8805 85452 13827 49%
c v  5.87 26 100 0 15 4854 15 41261 14837 2.1 15 7 2 8 22% 8810 85452 13827 49%
c w  5.89 26 100 0 15 4854 15 41261 14836 2.1 15 7 2 8 22% 8810 85452 13827 49%
c x  5.91 26 100 0 15 4854 15 41261 14836 2.1 15 7 2 8 22% 8810 81943 13827 49%
c =  6.03 26 100 0 15 4854 15 41261 14836 2.1 15 7 2 8 22% 11322 81905 12566 44%
c d  6.04 26 100 0 15 4854 15 41261 14550 2.1 15 7 2 8 22% 8801 81905 12566 44%
c f  6.07 26 100 0 15 4854 15 41261 14550 2.1 15 7 2 8 22% 8806 81885 12571 44%
c u  6.11 26 100 0 15 4854 15 41261 14081 2.1 15 7 2 8 22% 8832 81885 12571 44%
c v  6.14 26 100 0 15 4854 15 41261 13954 2.1 15 7 2 8 22% 8832 81885 12571 44%
c
c  seconds   switched     rate         size/glue tier1    binary         remaining
c         MB   reductions   conflicts        size  tier2     irredundant
c           level   restarts      redundant    glue   trail         variables
c
c w  6.15 26 100 0 15 4854 15 41261 13953 2.1 15 7 2 8 22% 8832 81885 12571 44%
c x  6.19 26 100 0 15 4854 15 41261 13953 2.1 15 7 2 8 22% 8832 77245 12571 44%
c =  6.32 26 100 0 15 4854 15 41261 13953 2.1 15 7 2 8 22% 9374 77245 12300 43%
c d  6.32 26 100 0 15 4854 15 41261 13952 2.1 15 7 2 8 22% 8832 77245 12300 43%
c -  6.37 26 99 0 16 4873 14 41473 12100 2.1 15 7 2 8 22% 8833 77245 12300 43%
c i  6.42 26 99 0 16 4946 14 42603 13001 2.1 15 7 2 8 22% 8898 77245 12299 43%
c i  6.43 26 99 0 16 4957 14 42751 13087 2.1 15 7 2 8 22% 8913 77245 12298 43%
c i  6.43 26 99 0 16 4958 14 42825 13136 2.1 15 7 2 8 22% 8918 77245 12297 43%
c i  6.43 26 98 0 16 4960 14 42998 13228 2.1 15 7 2 8 22% 8925 77243 12296 43%
c i  6.43 26 98 0 16 4960 14 43093 13300 2.1 15 7 2 8 22% 8927 77243 12295 43%
c i  6.43 26 98 0 16 4960 14 43137 13318 2.1 15 7 2 8 22% 8930 77243 12294 43%
c i  6.43 26 98 0 16 4960 14 43185 13336 2.1 15 7 2 8 22% 8934 77243 12293 43%
c i  6.43 26 98 0 16 4960 14 43253 13368 2.1 15 7 2 8 22% 8939 77243 12292 43%
c i  6.43 26 98 0 16 4960 14 43338 13405 2.1 15 7 2 8 22% 8943 77243 12291 43%
c i  6.45 26 98 0 16 4984 14 43907 13888 2.1 15 7 2 8 22% 8953 77243 12290 43%
c i  6.46 26 98 0 16 4984 14 43955 13907 2.1 15 7 2 8 22% 8960 77243 12289 43%
c i  6.46 26 98 0 16 4987 14 44087 14018 2.1 15 7 2 8 22% 8965 77243 12288 43%
c i  6.46 26 98 0 16 4987 14 44187 14087 2.1 15 7 2 8 22% 8969 77243 12287 43%
c i  6.48 26 98 0 16 5004 14 44563 14395 2.1 15 7 2 8 22% 8978 77243 12285 43%
c i  6.48 26 98 0 16 5004 14 44597 14412 2.1 15 7 2 8 22% 8981 77243 12284 43%
c
c  seconds  switched     rate         size/glue tier1    binary         remaining
c         MB  reductions   conflicts        size  tier2     irredundant
c          level   restarts      redundant    glue   trail         variables
c
c i  6.48 26 98 0 16 5004 14 44612 14416 2.1 15 7 2 8 22% 8984 77243 12283 43%
c i  6.48 26 98 0 16 5004 14 44789 14534 2.1 14 7 2 8 22% 8985 77243 12282 43%
c i  6.48 26 97 0 16 5004 14 44816 14557 2.1 14 7 2 8 22% 8985 77243 12281 43%
c i  6.48 26 97 0 16 5004 14 44817 14554 2.1 14 7 2 8 22% 8985 77243 12280 43%
c i  6.48 26 97 0 16 5004 14 44839 14558 2.1 14 7 2 8 22% 8987 77243 12278 43%
c i  6.48 26 97 0 16 5004 14 44861 14562 2.1 14 7 2 8 22% 8991 77243 12277 43%
c i  6.48 26 97 0 16 5004 14 44875 14566 2.1 14 7 2 8 22% 8994 77243 12276 43%
c i  6.49 26 97 0 16 5004 14 45076 14732 2.1 14 7 2 8 22% 8998 77243 12275 43%
c i  6.49 26 97 0 16 5004 14 45095 14744 2.1 14 7 2 8 22% 9001 77243 12274 43%
c i  6.50 26 97 0 16 5004 14 45118 14750 2.1 14 7 2 8 22% 9005 77243 12273 43%
c }  6.50 26 97 0 16 5004 14 45121 14750 2.1 14 7 2 8 22% 9006 77243 12111 43%
c 0  6.50 26 97 0 16 5004 14 45121 14750 2.1 14 7 2 8 22% 9006 77243 12111 43%
c
c ---- [ result ] ------------------------------------------------------------
c
s UNSATISFIABLE
c
c ---- [ profiling ] ---------------------------------------------------------
c
c           3.50   53.79 %  search
c           3.50   53.79 %  focused
c           2.64   40.68 %  simplify
c           2.62   40.26 %  probe
c           0.96   14.80 %  sweep
c           0.83   12.73 %  vivify
c           0.36    5.53 %  factor
c           0.30    4.58 %  preprocess
c           0.23    3.57 %  substitute
c           0.20    3.12 %  eliminate
c           0.15    2.31 %  congruence
c           0.12    1.80 %  fastel
c           0.07    1.05 %  reduce
c           0.05    0.80 %  transitive
c           0.04    0.63 %  lucky
c           0.04    0.63 %  subsume
c           0.03    0.52 %  backbone
c           0.02    0.32 %  parse
c =============================================
c           6.50  100.00 %  total
c
c ---- [ statistics ] --------------------------------------------------------
c
c chronological:                          385                1 %  conflicts
c conflicts:                            45121             6941.20 per second
c congruent:                               37                0 %  variables
c decisions:                           632730               14.02 per conflict
c eliminated:                            8188               29 %  variables
c factored:                                88                0 %  variables
c fast_eliminated:                       8058               98 %  eliminated
c fast_subsumed:                            1                0 %  per subsumed
c iterations:                              26                0 %  variables
c propagations:                      32869341          5056465    per second
c reductions:                              16             2820    interval
c reordered:                                3            15040    interval
c restarts:                              5004                9    interval
c strengthened:                           106                0 %  checks
c substituted:                           7906               28 %  variables
c subsumed:                             22265                1 %  checks
c switched:                                 0                0    interval
c vivified:                             27022               26 %  checks
c
c ---- [ glue usage ] --------------------------------------------------------
c
c focused glue 2   used 17984 clauses 28.59% accumulated 64.18% tier1
c focused glue 3   used  6431 clauses 10.22% accumulated 74.41%
c focused glue 4-6 used  7894 clauses 12.55% accumulated 86.95%
c focused glue 7   used  1437 clauses  2.28% accumulated 89.24%
c focused glue 8   used  1203 clauses  1.91% accumulated 91.15% tier2
c
c ---- [ resources ] ---------------------------------------------------------
c
c maximum-resident-set-size:         26877952 bytes         26 MB
c process-time:                             7s               6.50 seconds
c
c ---- [ shutting down ] -----------------------------------------------------
c
c exit 20
